3 100
0 40.0 50.0 0.0 0.0 0 1236
2 45.0 68.0 90.0 10.0 885 994
3 45.0 70.0 90.0 30.0 802 893
4 42.0 66.0 90.0 10.0 25 186
5 42.0 68.0 90.0 10.0 699 810
6 42.0 65.0 90.0 10.0 15 120
7 40.0 69.0 90.0 20.0 580 743
8 40.0 66.0 90.0 20.0 142 253
9 38.0 68.0 90.0 20.0 220 359
10 38.0 70.0 90.0 10.0 499 640
11 35.0 66.0 90.0 10.0 331 436
12 35.0 69.0 90.0 10.0 420 533
13 25.0 85.0 90.0 20.0 617 756
14 22.0 75.0 90.0 30.0 30 155
15 22.0 85.0 90.0 10.0 541 646
16 20.0 80.0 90.0 40.0 362 451
17 20.0 85.0 90.0 40.0 448 555
18 18.0 75.0 90.0 20.0 75 172
19 15.0 75.0 90.0 20.0 142 291
20 15.0 80.0 90.0 10.0 244 379
21 30.0 50.0 90.0 10.0 10 137
22 30.0 52.0 90.0 20.0 888 991
23 28.0 52.0 90.0 20.0 776 919
24 28.0 55.0 90.0 10.0 709 800
25 25.0 50.0 90.0 10.0 25 184
26 25.0 52.0 90.0 40.0 142 251
27 25.0 55.0 90.0 10.0 582 741
28 23.0 52.0 90.0 10.0 234 343
29 23.0 55.0 90.0 20.0 523 616
30 20.0 50.0 90.0 10.0 335 428
31 20.0 55.0 90.0 10.0 422 531
32 10.0 35.0 90.0 20.0 181 256
33 10.0 40.0 90.0 30.0 31 170
34 8.0 40.0 90.0 40.0 52 193
35 8.0 45.0 90.0 20.0 719 848
36 5.0 35.0 90.0 10.0 252 375
37 5.0 45.0 90.0 10.0 639 742
38 2.0 40.0 90.0 20.0 357 460
39 0.0 40.0 90.0 30.0 457 544
40 0.0 45.0 90.0 20.0 538 653
41 35.0 30.0 90.0 10.0 236 349
42 35.0 32.0 90.0 10.0 132 269
43 33.0 32.0 90.0 20.0 27 190
44 33.0 35.0 90.0 10.0 16 144
45 32.0 30.0 90.0 10.0 332 439
46 30.0 30.0 90.0 10.0 512 629
47 30.0 32.0 90.0 30.0 417 540
48 30.0 35.0 90.0 10.0 982 1127
49 28.0 30.0 90.0 10.0 601 724
50 28.0 35.0 90.0 10.0 969 1098
51 26.0 32.0 90.0 10.0 783 912
52 25.0 30.0 90.0 10.0 695 816
53 25.0 35.0 90.0 10.0 883 998
54 44.0 5.0 90.0 20.0 255 378
55 42.0 10.0 90.0 40.0 150 293
56 42.0 15.0 90.0 10.0 63 190
57 40.0 5.0 90.0 30.0 359 462
58 40.0 15.0 90.0 40.0 35 140
59 38.0 5.0 90.0 30.0 439 566
60 38.0 15.0 90.0 10.0 607 784
61 35.0 5.0 90.0 20.0 529 662
62 50.0 30.0 90.0 10.0 491 650
63 50.0 35.0 90.0 20.0 235 344
64 50.0 40.0 90.0 50.0 147 242
65 48.0 30.0 90.0 10.0 601 724
66 48.0 40.0 90.0 10.0 50 155
67 47.0 35.0 90.0 10.0 802 899
68 47.0 40.0 90.0 10.0 12 143
69 45.0 30.0 90.0 10.0 712 799
70 45.0 35.0 90.0 10.0 889 996
71 95.0 30.0 90.0 30.0 353 490
72 95.0 35.0 90.0 20.0 260 393
73 53.0 30.0 90.0 10.0 422 533
74 92.0 30.0 90.0 10.0 442 587
75 53.0 35.0 90.0 50.0 323 442
76 45.0 65.0 90.0 20.0 962 1103
77 90.0 35.0 90.0 10.0 175 288
78 88.0 30.0 90.0 10.0 539 678
79 88.0 35.0 90.0 20.0 78 201
80 87.0 30.0 90.0 10.0 636 763
81 85.0 25.0 90.0 10.0 744 845
82 85.0 35.0 90.0 30.0 47 201
83 75.0 55.0 90.0 20.0 344 445
84 72.0 55.0 90.0 10.0 228 375
85 70.0 58.0 90.0 20.0 425 556
86 68.0 60.0 90.0 30.0 527 640
87 66.0 55.0 90.0 10.0 141 270
88 65.0 55.0 90.0 20.0 56 173
89 65.0 60.0 90.0 30.0 614 739
90 63.0 58.0 90.0 10.0 705 834
91 60.0 55.0 90.0 10.0 20 148
92 60.0 60.0 90.0 10.0 809 916
93 67.0 85.0 90.0 20.0 331 478
94 65.0 85.0 90.0 40.0 453 540
95 65.0 82.0 90.0 10.0 260 361
96 62.0 80.0 90.0 30.0 174 261
97 60.0 80.0 90.0 10.0 64 187
98 60.0 85.0 90.0 30.0 531 652
99 58.0 75.0 90.0 20.0 30 139
100 55.0 80.0 90.0 10.0 705 858
101 55.0 85.0 90.0 20.0 608 765